(set-logic HORN)
(declare-fun state ((Array Int Int) Int Int Int Int (Array Int Int) Bool Bool Int (Array Int Int) Int Bool Bool Int Bool Int Bool Bool) Bool)
(assert (forall ((|P_1| (Array Int Int)) (|Q_0| Int) (|I_1| Int) (|E_1| Int) (|A_2| Int) (|B_2| (Array Int Int)) (|.loc.9| Bool) (|.loc.10| Bool) (|G_1| Int) (|G| (Array Int Int)) (|L_1| Int) (|K_1| Bool) (|J_1| Bool) (|R| Int) (|F_1| Bool) (|O_1| Int) (|N_1| Bool) (|M_1| Bool) (|.loc.17| Bool) (|.loc.18| Bool) (|.y.12| Int) (|.y.14| Int) (|.y.11| (Array Int Int)) (|.y.15| Int) (|.y.16| (Array Int Int)) (|.y.13| Int) (|.xtv.1| Int) (|.xtv.2| (Array Int Int)) (|.xtv.3| Int) (|.xtv.4| Bool) (|.xtv.5| Bool) (|.xtv.6| Int) (|.xtv.7| Bool) (|.xtv.8| Int) (|.xtv.9| Bool) (|.xtv.10| Bool)) (=> (and (not .loc.10) (not .loc.9)) (state |P_1| |Q_0| |I_1| |E_1| |A_2| |B_2| |.loc.9| |.loc.10| |G_1| |G| |L_1| |K_1| |J_1| |R| |F_1| |O_1| |N_1| |M_1|))))
(assert (forall ((|P_1| (Array Int Int)) (|Q_0| Int) (|I_1| Int) (|E_1| Int) (|A_2| Int) (|B_2| (Array Int Int)) (|.loc.9| Bool) (|.loc.10| Bool) (|G_1| Int) (|G| (Array Int Int)) (|L_1| Int) (|K_1| Bool) (|J_1| Bool) (|R| Int) (|F_1| Bool) (|O_1| Int) (|N_1| Bool) (|M_1| Bool) (|.loc.17| Bool) (|.loc.18| Bool) (|.y.12| Int) (|.y.14| Int) (|.y.11| (Array Int Int)) (|.y.15| Int) (|.y.16| (Array Int Int)) (|.y.13| Int) (|.xtv.1| Int) (|.xtv.2| (Array Int Int)) (|.xtv.3| Int) (|.xtv.4| Bool) (|.xtv.5| Bool) (|.xtv.6| Int) (|.xtv.7| Bool) (|.xtv.8| Int) (|.xtv.9| Bool) (|.xtv.10| Bool)) (=> (and (state |P_1| |Q_0| |I_1| |E_1| |A_2| |B_2| |.loc.9| |.loc.10| |G_1| |G| |L_1| |K_1| |J_1| |R| |F_1| |O_1| |N_1| |M_1|) (let ((.def_34 (<= 0 R))) (let ((.def_36 (select P_1 Q_0))) (let ((.def_38 (not (<= .def_36 R)))) (let ((.def_40 (not (<= 0 .def_36)))) (let ((.def_50 (not M_1))) (let ((.def_51 (not J_1))) (let ((.def_59 (= (select B_2 (+ (* 4 I_1) A_2)) 3))) (let ((.def_60 (not .def_59))) (let ((.def_62 (not N_1))) (let ((.def_63 (or .def_50 .def_62))) (let ((.def_66 (not K_1))) (let ((.def_77 (not (<= E_1 G_1)))) (let ((.def_79 (not (<= 0 E_1)))) (let ((.def_81 (<= 0 G_1))) (let ((.def_94 (or .def_51 .def_66))) (let ((.def_100 (<= A_2 0))) (let ((.def_101 (not .def_100))) (let ((.def_114 (or .def_100 (not (<= (+ (* 4 I_1) A_2) 0))))) (let ((.def_135 (<= .y.15 0))) (let ((.def_142 (not .loc.18))) (let ((.def_159 (<= 0 .y.13))) (let ((.def_162 (not (<= E_1 .y.13)))) (and (not .loc.10) (or (or (and (not .loc.17) (and (and .loc.9 (and (not (and (or (not .def_34) (or .def_38 .def_40)) (or .def_34 (and .def_38 .def_40)))) (and (or (and N_1 M_1) (and K_1 J_1)) (and (or (or .def_50 .def_51) .def_60) (and (or .def_59 .def_63) (and (and (or M_1 .def_62) (and (or J_1 .def_66) (and (or .def_51 (and J_1 M_1)) (and (or .def_51 (= (+ I_1 (* (- 1) G_1)) (- 1))) (and (or .def_51 (= F_1 (and (or (and .def_77 .def_79) .def_81) (or (not .def_81) (or .def_77 .def_79))))) (and (or .def_63 (= R O_1)) (and (or .def_63 (= I_1 O_1)) (and (or (not F_1) .def_94) (and (or .def_94 (= L_1 R)) (and (or .def_94 (= G_1 L_1)) .def_101)))))))))) .def_114)))))) .loc.18)) (and (= (store P_1 .y.12 .y.14) .y.11) (and (= (store G (+ (* 4 G_1) .y.15) 3) .y.16) (and (not .def_135) (and (or .def_135 (not (<= (+ (* 4 G_1) .y.15) 0))) (and (= .y.13 0) (and (not .loc.9) (and .loc.17 .def_142)))))))) (and (= B_2 .y.16) (and (= A_2 .y.15) (and (= E_1 .y.14) (and (= Q_0 .y.12) (and (= P_1 .y.11) (and (= (+ I_1 (* (- 1) .y.13)) (- 1)) (and (or (not .def_159) (or .def_79 .def_162)) (and (or .def_159 (and .def_79 .def_162)) (and .def_142 (and .loc.17 (and .loc.9 (and .def_60 (and .def_101 .def_114)))))))))))))))))))))))))))))))))))))) (state |.y.11| |.y.12| |.y.13| |.y.14| |.y.15| |.y.16| |.loc.17| |.loc.18| |.xtv.1| |.xtv.2| |.xtv.3| |.xtv.4| |.xtv.5| |.xtv.6| |.xtv.7| |.xtv.8| |.xtv.9| |.xtv.10|))))
(assert (forall ((|P_1| (Array Int Int)) (|Q_0| Int) (|I_1| Int) (|E_1| Int) (|A_2| Int) (|B_2| (Array Int Int)) (|.loc.9| Bool) (|.loc.10| Bool) (|G_1| Int) (|G| (Array Int Int)) (|L_1| Int) (|K_1| Bool) (|J_1| Bool) (|R| Int) (|F_1| Bool) (|O_1| Int) (|N_1| Bool) (|M_1| Bool) (|.loc.17| Bool) (|.loc.18| Bool) (|.y.12| Int) (|.y.14| Int) (|.y.11| (Array Int Int)) (|.y.15| Int) (|.y.16| (Array Int Int)) (|.y.13| Int) (|.xtv.1| Int) (|.xtv.2| (Array Int Int)) (|.xtv.3| Int) (|.xtv.4| Bool) (|.xtv.5| Bool) (|.xtv.6| Int) (|.xtv.7| Bool) (|.xtv.8| Int) (|.xtv.9| Bool) (|.xtv.10| Bool)) (=> (state |P_1| |Q_0| |I_1| |E_1| |A_2| |B_2| |.loc.9| |.loc.10| |G_1| |G| |L_1| |K_1| |J_1| |R| |F_1| |O_1| |N_1| |M_1|) (not (and .loc.10 (not .loc.9))))))
(check-sat)
